Bands along L - G - X - G
50
L
rec

0.5 0.5 0.5
0 0 0

0 0 0
0 0.5 0.5

0 0.5 0.5
0 0 0
