Si
5.431
0.000 0.500 0.500
0.500 0.000 0.500
0.500 0.500 0.000
Si
2
Direct
0.000 0.000 0.000
0.250 0.250 0.250

